# Solution for model RU-StripPacking-22
# Objective value = 240
c[0,0] 34
c[0,1] 16
c[1,0] 293.5
c[1,1] 7
c[2,0] 268.5
c[2,1] 15
c[3,0] 286.5
c[3,1] 75.5
c[4,0] 92
c[4,1] 39
c[5,0] 30
c[5,1] 185
c[6,0] 160
c[6,1] 23.5
c[7,0] 40
c[7,1] 57.5
c[8,0] 224.5
c[8,1] 37.5
c[9,0] 50.5
c[9,1] 228.5
c[10,0] 224.5
c[10,1] 100
c[11,0] 127.5
c[11,1] 227.5
c[12,0] 226
c[12,1] 70.5
c[13,0] 144
c[13,1] 81.5
c[14,0] 176.5
c[14,1] 86
c[15,0] 46
c[15,1] 137
c[16,0] 142
c[16,1] 92.5
c[17,0] 236
c[17,1] 13.5
c[18,0] 259
c[18,1] 180
c[19,0] 119
c[19,1] 152.5
c[20,0] 34
c[20,1] 84
c[21,0] 16
c[21,1] 116
h 240
delta[0,1,0] 1
delta[0,1,1] 0
delta[0,2,0] 1
delta[0,2,1] 0
delta[0,3,0] 1
delta[0,3,1] 0
delta[0,4,0] 1
delta[0,4,1] 0
delta[0,5,0] 0
delta[0,5,1] 1
delta[0,6,0] 1
delta[0,6,1] 0
delta[0,7,0] 0
delta[0,7,1] 1
delta[0,8,0] 1
delta[0,8,1] 0
delta[0,9,0] 0
delta[0,9,1] 1
delta[0,10,0] 1
delta[0,10,1] 1
delta[0,11,0] 1
delta[0,11,1] 1
delta[0,12,0] 1
delta[0,12,1] 1
delta[0,13,0] 1
delta[0,13,1] 1
delta[0,14,0] 1
delta[0,14,1] 1
delta[0,15,0] 0
delta[0,15,1] 1
delta[0,16,0] 1
delta[0,16,1] 1
delta[0,17,0] 1
delta[0,17,1] 0
delta[0,18,0] 1
delta[0,18,1] 1
delta[0,19,0] 1
delta[0,19,1] 1
delta[0,20,0] 0
delta[0,20,1] 1
delta[0,21,0] 0
delta[0,21,1] 1
delta[1,0,0] 0
delta[1,0,1] 0
delta[1,2,0] 0
delta[1,2,1] 0
delta[1,3,0] 0
delta[1,3,1] 1
delta[1,4,0] 0
delta[1,4,1] 0
delta[1,5,0] 0
delta[1,5,1] 1
delta[1,6,0] 0
delta[1,6,1] 0
delta[1,7,0] 0
delta[1,7,1] 1
delta[1,8,0] 0
delta[1,8,1] 0
delta[1,9,0] 0
delta[1,9,1] 1
delta[1,10,0] 0
delta[1,10,1] 1
delta[1,11,0] 0
delta[1,11,1] 1
delta[1,12,0] 0
delta[1,12,1] 1
delta[1,13,0] 0
delta[1,13,1] 1
delta[1,14,0] 0
delta[1,14,1] 1
delta[1,15,0] 0
delta[1,15,1] 1
delta[1,16,0] 0
delta[1,16,1] 1
delta[1,17,0] 0
delta[1,17,1] 0
delta[1,18,0] 0
delta[1,18,1] 1
delta[1,19,0] 0
delta[1,19,1] 1
delta[1,20,0] 0
delta[1,20,1] 1
delta[1,21,0] 0
delta[1,21,1] 1
delta[2,0,0] 0
delta[2,0,1] 0
delta[2,1,0] 1
delta[2,1,1] 0
delta[2,3,0] 0
delta[2,3,1] 1
delta[2,4,0] 0
delta[2,4,1] 0
delta[2,5,0] 0
delta[2,5,1] 1
delta[2,6,0] 0
delta[2,6,1] 0
delta[2,7,0] 0
delta[2,7,1] 1
delta[2,8,0] 0
delta[2,8,1] 0
delta[2,9,0] 0
delta[2,9,1] 1
delta[2,10,0] 0
delta[2,10,1] 1
delta[2,11,0] 0
delta[2,11,1] 1
delta[2,12,0] 0
delta[2,12,1] 1
delta[2,13,0] 0
delta[2,13,1] 1
delta[2,14,0] 0
delta[2,14,1] 1
delta[2,15,0] 0
delta[2,15,1] 1
delta[2,16,0] 0
delta[2,16,1] 1
delta[2,17,0] 0
delta[2,17,1] 0
delta[2,18,0] 0
delta[2,18,1] 1
delta[2,19,0] 0
delta[2,19,1] 1
delta[2,20,0] 0
delta[2,20,1] 1
delta[2,21,0] 0
delta[2,21,1] 1
delta[3,0,0] 0
delta[3,0,1] 0
delta[3,1,0] 0
delta[3,1,1] 0
delta[3,2,0] 0
delta[3,2,1] 0
delta[3,4,0] 0
delta[3,4,1] 0
delta[3,5,0] 0
delta[3,5,1] 1
delta[3,6,0] 0
delta[3,6,1] 0
delta[3,7,0] 0
delta[3,7,1] 0
delta[3,8,0] 0
delta[3,8,1] 0
delta[3,9,0] 0
delta[3,9,1] 1
delta[3,10,0] 0
delta[3,10,1] 0
delta[3,11,0] 0
delta[3,11,1] 1
delta[3,12,0] 0
delta[3,12,1] 0
delta[3,13,0] 0
delta[3,13,1] 0
delta[3,14,0] 0
delta[3,14,1] 0
delta[3,15,0] 0
delta[3,15,1] 0
delta[3,16,0] 0
delta[3,16,1] 0
delta[3,17,0] 0
delta[3,17,1] 0
delta[3,18,0] 0
delta[3,18,1] 1
delta[3,19,0] 0
delta[3,19,1] 0
delta[3,20,0] 0
delta[3,20,1] 0
delta[3,21,0] 0
delta[3,21,1] 0
delta[4,0,0] 0
delta[4,0,1] 0
delta[4,1,0] 1
delta[4,1,1] 0
delta[4,2,0] 1
delta[4,2,1] 0
delta[4,3,0] 1
delta[4,3,1] 0
delta[4,5,0] 0
delta[4,5,1] 1
delta[4,6,0] 1
delta[4,6,1] 0
delta[4,7,0] 0
delta[4,7,1] 0
delta[4,8,0] 1
delta[4,8,1] 0
delta[4,9,0] 0
delta[4,9,1] 1
delta[4,10,0] 1
delta[4,10,1] 0
delta[4,11,0] 0
delta[4,11,1] 1
delta[4,12,0] 1
delta[4,12,1] 0
delta[4,13,0] 1
delta[4,13,1] 0
delta[4,14,0] 1
delta[4,14,1] 0
delta[4,15,0] 0
delta[4,15,1] 1
delta[4,16,0] 1
delta[4,16,1] 0
delta[4,17,0] 1
delta[4,17,1] 0
delta[4,18,0] 1
delta[4,18,1] 0
delta[4,19,0] 0
delta[4,19,1] 1
delta[4,20,0] 0
delta[4,20,1] 0
delta[4,21,0] 0
delta[4,21,1] 0
delta[5,0,0] 0
delta[5,0,1] 0
delta[5,1,0] 1
delta[5,1,1] 0
delta[5,2,0] 1
delta[5,2,1] 0
delta[5,3,0] 1
delta[5,3,1] 0
delta[5,4,0] 0
delta[5,4,1] 0
delta[5,6,0] 1
delta[5,6,1] 0
delta[5,7,0] 0
delta[5,7,1] 0
delta[5,8,0] 1
delta[5,8,1] 0
delta[5,9,0] 0
delta[5,9,1] 1
delta[5,10,0] 1
delta[5,10,1] 0
delta[5,11,0] 1
delta[5,11,1] 0
delta[5,12,0] 1
delta[5,12,1] 0
delta[5,13,0] 1
delta[5,13,1] 0
delta[5,14,0] 1
delta[5,14,1] 0
delta[5,15,0] 0
delta[5,15,1] 0
delta[5,16,0] 1
delta[5,16,1] 0
delta[5,17,0] 1
delta[5,17,1] 0
delta[5,18,0] 1
delta[5,18,1] 0
delta[5,19,0] 1
delta[5,19,1] 0
delta[5,20,0] 0
delta[5,20,1] 0
delta[5,21,0] 0
delta[5,21,1] 0
delta[6,0,0] 0
delta[6,0,1] 0
delta[6,1,0] 1
delta[6,1,1] 0
delta[6,2,0] 1
delta[6,2,1] 0
delta[6,3,0] 1
delta[6,3,1] 0
delta[6,4,0] 0
delta[6,4,1] 0
delta[6,5,0] 0
delta[6,5,1] 1
delta[6,7,0] 0
delta[6,7,1] 0
delta[6,8,0] 1
delta[6,8,1] 0
delta[6,9,0] 0
delta[6,9,1] 1
delta[6,10,0] 0
delta[6,10,1] 1
delta[6,11,0] 0
delta[6,11,1] 1
delta[6,12,0] 1
delta[6,12,1] 0
delta[6,13,0] 0
delta[6,13,1] 1
delta[6,14,0] 0
delta[6,14,1] 1
delta[6,15,0] 0
delta[6,15,1] 1
delta[6,16,0] 0
delta[6,16,1] 1
delta[6,17,0] 1
delta[6,17,1] 0
delta[6,18,0] 0
delta[6,18,1] 1
delta[6,19,0] 0
delta[6,19,1] 1
delta[6,20,0] 0
delta[6,20,1] 1
delta[6,21,0] 0
delta[6,21,1] 0
delta[7,0,0] 0
delta[7,0,1] 0
delta[7,1,0] 1
delta[7,1,1] 0
delta[7,2,0] 1
delta[7,2,1] 0
delta[7,3,0] 1
delta[7,3,1] 0
delta[7,4,0] 1
delta[7,4,1] 0
delta[7,5,0] 0
delta[7,5,1] 1
delta[7,6,0] 1
delta[7,6,1] 0
delta[7,8,0] 1
delta[7,8,1] 0
delta[7,9,0] 0
delta[7,9,1] 1
delta[7,10,0] 1
delta[7,10,1] 1
delta[7,11,0] 1
delta[7,11,1] 1
delta[7,12,0] 1
delta[7,12,1] 0
delta[7,13,0] 1
delta[7,13,1] 0
delta[7,14,0] 1
delta[7,14,1] 0
delta[7,15,0] 0
delta[7,15,1] 1
delta[7,16,0] 1
delta[7,16,1] 1
delta[7,17,0] 1
delta[7,17,1] 0
delta[7,18,0] 1
delta[7,18,1] 1
delta[7,19,0] 1
delta[7,19,1] 1
delta[7,20,0] 0
delta[7,20,1] 1
delta[7,21,0] 0
delta[7,21,1] 0
delta[8,0,0] 0
delta[8,0,1] 0
delta[8,1,0] 1
delta[8,1,1] 0
delta[8,2,0] 1
delta[8,2,1] 0
delta[8,3,0] 1
delta[8,3,1] 0
delta[8,4,0] 0
delta[8,4,1] 0
delta[8,5,0] 0
delta[8,5,1] 1
delta[8,6,0] 0
delta[8,6,1] 0
delta[8,7,0] 0
delta[8,7,1] 0
delta[8,9,0] 0
delta[8,9,1] 1
delta[8,10,0] 0
delta[8,10,1] 1
delta[8,11,0] 0
delta[8,11,1] 1
delta[8,12,0] 0
delta[8,12,1] 1
delta[8,13,0] 0
delta[8,13,1] 1
delta[8,14,0] 0
delta[8,14,1] 1
delta[8,15,0] 0
delta[8,15,1] 1
delta[8,16,0] 0
delta[8,16,1] 1
delta[8,17,0] 0
delta[8,17,1] 0
delta[8,18,0] 0
delta[8,18,1] 1
delta[8,19,0] 0
delta[8,19,1] 1
delta[8,20,0] 0
delta[8,20,1] 1
delta[8,21,0] 0
delta[8,21,1] 0
delta[9,0,0] 0
delta[9,0,1] 0
delta[9,1,0] 1
delta[9,1,1] 0
delta[9,2,0] 1
delta[9,2,1] 0
delta[9,3,0] 1
delta[9,3,1] 0
delta[9,4,0] 0
delta[9,4,1] 0
delta[9,5,0] 0
delta[9,5,1] 0
delta[9,6,0] 1
delta[9,6,1] 0
delta[9,7,0] 0
delta[9,7,1] 0
delta[9,8,0] 1
delta[9,8,1] 0
delta[9,10,0] 1
delta[9,10,1] 0
delta[9,11,0] 1
delta[9,11,1] 0
delta[9,12,0] 1
delta[9,12,1] 0
delta[9,13,0] 1
delta[9,13,1] 0
delta[9,14,0] 1
delta[9,14,1] 0
delta[9,15,0] 0
delta[9,15,1] 0
delta[9,16,0] 1
delta[9,16,1] 0
delta[9,17,0] 1
delta[9,17,1] 0
delta[9,18,0] 1
delta[9,18,1] 0
delta[9,19,0] 0
delta[9,19,1] 0
delta[9,20,0] 0
delta[9,20,1] 0
delta[9,21,0] 0
delta[9,21,1] 0
delta[10,0,0] 0
delta[10,0,1] 0
delta[10,1,0] 1
delta[10,1,1] 0
delta[10,2,0] 1
delta[10,2,1] 0
delta[10,3,0] 1
delta[10,3,1] 0
delta[10,4,0] 0
delta[10,4,1] 0
delta[10,5,0] 0
delta[10,5,1] 1
delta[10,6,0] 0
delta[10,6,1] 0
delta[10,7,0] 0
delta[10,7,1] 0
delta[10,8,0] 0
delta[10,8,1] 0
delta[10,9,0] 0
delta[10,9,1] 1
delta[10,11,0] 0
delta[10,11,1] 1
delta[10,12,0] 0
delta[10,12,1] 0
delta[10,13,0] 0
delta[10,13,1] 0
delta[10,14,0] 0
delta[10,14,1] 0
delta[10,15,0] 0
delta[10,15,1] 0
delta[10,16,0] 0
delta[10,16,1] 0
delta[10,17,0] 0
delta[10,17,1] 0
delta[10,18,0] 0
delta[10,18,1] 1
delta[10,19,0] 0
delta[10,19,1] 0
delta[10,20,0] 0
delta[10,20,1] 0
delta[10,21,0] 0
delta[10,21,1] 0
delta[11,0,0] 0
delta[11,0,1] 0
delta[11,1,0] 1
delta[11,1,1] 0
delta[11,2,0] 1
delta[11,2,1] 0
delta[11,3,0] 1
delta[11,3,1] 0
delta[11,4,0] 0
delta[11,4,1] 0
delta[11,5,0] 0
delta[11,5,1] 0
delta[11,6,0] 0
delta[11,6,1] 0
delta[11,7,0] 0
delta[11,7,1] 0
delta[11,8,0] 1
delta[11,8,1] 0
delta[11,9,0] 0
delta[11,9,1] 0
delta[11,10,0] 1
delta[11,10,1] 0
delta[11,12,0] 1
delta[11,12,1] 0
delta[11,13,0] 0
delta[11,13,1] 0
delta[11,14,0] 0
delta[11,14,1] 0
delta[11,15,0] 0
delta[11,15,1] 0
delta[11,16,0] 0
delta[11,16,1] 0
delta[11,17,0] 1
delta[11,17,1] 0
delta[11,18,0] 1
delta[11,18,1] 0
delta[11,19,0] 0
delta[11,19,1] 0
delta[11,20,0] 0
delta[11,20,1] 0
delta[11,21,0] 0
delta[11,21,1] 0
delta[12,0,0] 0
delta[12,0,1] 0
delta[12,1,0] 1
delta[12,1,1] 0
delta[12,2,0] 1
delta[12,2,1] 0
delta[12,3,0] 1
delta[12,3,1] 0
delta[12,4,0] 0
delta[12,4,1] 0
delta[12,5,0] 0
delta[12,5,1] 1
delta[12,6,0] 0
delta[12,6,1] 0
delta[12,7,0] 0
delta[12,7,1] 0
delta[12,8,0] 0
delta[12,8,1] 0
delta[12,9,0] 0
delta[12,9,1] 1
delta[12,10,0] 0
delta[12,10,1] 1
delta[12,11,0] 0
delta[12,11,1] 1
delta[12,13,0] 0
delta[12,13,1] 0
delta[12,14,0] 0
delta[12,14,1] 0
delta[12,15,0] 0
delta[12,15,1] 1
delta[12,16,0] 0
delta[12,16,1] 0
delta[12,17,0] 0
delta[12,17,1] 0
delta[12,18,0] 0
delta[12,18,1] 1
delta[12,19,0] 0
delta[12,19,1] 1
delta[12,20,0] 0
delta[12,20,1] 0
delta[12,21,0] 0
delta[12,21,1] 0
delta[13,0,0] 0
delta[13,0,1] 0
delta[13,1,0] 1
delta[13,1,1] 0
delta[13,2,0] 1
delta[13,2,1] 0
delta[13,3,0] 1
delta[13,3,1] 0
delta[13,4,0] 0
delta[13,4,1] 0
delta[13,5,0] 0
delta[13,5,1] 1
delta[13,6,0] 0
delta[13,6,1] 0
delta[13,7,0] 0
delta[13,7,1] 0
delta[13,8,0] 1
delta[13,8,1] 0
delta[13,9,0] 0
delta[13,9,1] 1
delta[13,10,0] 1
delta[13,10,1] 0
delta[13,11,0] 0
delta[13,11,1] 1
delta[13,12,0] 1
delta[13,12,1] 0
delta[13,14,0] 1
delta[13,14,1] 0
delta[13,15,0] 0
delta[13,15,1] 1
delta[13,16,0] 0
delta[13,16,1] 1
delta[13,17,0] 1
delta[13,17,1] 0
delta[13,18,0] 0
delta[13,18,1] 1
delta[13,19,0] 0
delta[13,19,1] 1
delta[13,20,0] 0
delta[13,20,1] 0
delta[13,21,0] 0
delta[13,21,1] 0
delta[14,0,0] 0
delta[14,0,1] 0
delta[14,1,0] 1
delta[14,1,1] 0
delta[14,2,0] 1
delta[14,2,1] 0
delta[14,3,0] 1
delta[14,3,1] 0
delta[14,4,0] 0
delta[14,4,1] 0
delta[14,5,0] 0
delta[14,5,1] 1
delta[14,6,0] 0
delta[14,6,1] 0
delta[14,7,0] 0
delta[14,7,1] 0
delta[14,8,0] 0
delta[14,8,1] 0
delta[14,9,0] 0
delta[14,9,1] 1
delta[14,10,0] 1
delta[14,10,1] 0
delta[14,11,0] 0
delta[14,11,1] 1
delta[14,12,0] 1
delta[14,12,1] 0
delta[14,13,0] 0
delta[14,13,1] 0
delta[14,15,0] 0
delta[14,15,1] 1
delta[14,16,0] 0
delta[14,16,1] 0
delta[14,17,0] 0
delta[14,17,1] 0
delta[14,18,0] 0
delta[14,18,1] 1
delta[14,19,0] 0
delta[14,19,1] 1
delta[14,20,0] 0
delta[14,20,1] 0
delta[14,21,0] 0
delta[14,21,1] 0
delta[15,0,0] 0
delta[15,0,1] 0
delta[15,1,0] 1
delta[15,1,1] 0
delta[15,2,0] 1
delta[15,2,1] 0
delta[15,3,0] 1
delta[15,3,1] 0
delta[15,4,0] 0
delta[15,4,1] 0
delta[15,5,0] 0
delta[15,5,1] 1
delta[15,6,0] 1
delta[15,6,1] 0
delta[15,7,0] 0
delta[15,7,1] 0
delta[15,8,0] 1
delta[15,8,1] 0
delta[15,9,0] 0
delta[15,9,1] 1
delta[15,10,0] 1
delta[15,10,1] 0
delta[15,11,0] 1
delta[15,11,1] 1
delta[15,12,0] 1
delta[15,12,1] 0
delta[15,13,0] 1
delta[15,13,1] 0
delta[15,14,0] 1
delta[15,14,1] 0
delta[15,16,0] 1
delta[15,16,1] 0
delta[15,17,0] 1
delta[15,17,1] 0
delta[15,18,0] 1
delta[15,18,1] 0
delta[15,19,0] 1
delta[15,19,1] 0
delta[15,20,0] 0
delta[15,20,1] 0
delta[15,21,0] 0
delta[15,21,1] 0
delta[16,0,0] 0
delta[16,0,1] 0
delta[16,1,0] 1
delta[16,1,1] 0
delta[16,2,0] 1
delta[16,2,1] 0
delta[16,3,0] 1
delta[16,3,1] 0
delta[16,4,0] 0
delta[16,4,1] 0
delta[16,5,0] 0
delta[16,5,1] 1
delta[16,6,0] 0
delta[16,6,1] 0
delta[16,7,0] 0
delta[16,7,1] 0
delta[16,8,0] 1
delta[16,8,1] 0
delta[16,9,0] 0
delta[16,9,1] 1
delta[16,10,0] 1
delta[16,10,1] 0
delta[16,11,0] 0
delta[16,11,1] 1
delta[16,12,0] 1
delta[16,12,1] 0
delta[16,13,0] 0
delta[16,13,1] 0
delta[16,14,0] 1
delta[16,14,1] 0
delta[16,15,0] 0
delta[16,15,1] 1
delta[16,17,0] 1
delta[16,17,1] 0
delta[16,18,0] 1
delta[16,18,1] 1
delta[16,19,0] 0
delta[16,19,1] 1
delta[16,20,0] 0
delta[16,20,1] 0
delta[16,21,0] 0
delta[16,21,1] 0
delta[17,0,0] 0
delta[17,0,1] 0
delta[17,1,0] 1
delta[17,1,1] 0
delta[17,2,0] 1
delta[17,2,1] 0
delta[17,3,0] 0
delta[17,3,1] 1
delta[17,4,0] 0
delta[17,4,1] 0
delta[17,5,0] 0
delta[17,5,1] 1
delta[17,6,0] 0
delta[17,6,1] 0
delta[17,7,0] 0
delta[17,7,1] 1
delta[17,8,0] 0
delta[17,8,1] 1
delta[17,9,0] 0
delta[17,9,1] 1
delta[17,10,0] 0
delta[17,10,1] 1
delta[17,11,0] 0
delta[17,11,1] 1
delta[17,12,0] 0
delta[17,12,1] 1
delta[17,13,0] 0
delta[17,13,1] 1
delta[17,14,0] 0
delta[17,14,1] 1
delta[17,15,0] 0
delta[17,15,1] 1
delta[17,16,0] 0
delta[17,16,1] 1
delta[17,18,0] 0
delta[17,18,1] 1
delta[17,19,0] 0
delta[17,19,1] 1
delta[17,20,0] 0
delta[17,20,1] 1
delta[17,21,0] 0
delta[17,21,1] 1
delta[18,0,0] 0
delta[18,0,1] 0
delta[18,1,0] 0
delta[18,1,1] 0
delta[18,2,0] 0
delta[18,2,1] 0
delta[18,3,0] 0
delta[18,3,1] 0
delta[18,4,0] 0
delta[18,4,1] 0
delta[18,5,0] 0
delta[18,5,1] 0
delta[18,6,0] 0
delta[18,6,1] 0
delta[18,7,0] 0
delta[18,7,1] 0
delta[18,8,0] 0
delta[18,8,1] 0
delta[18,9,0] 0
delta[18,9,1] 0
delta[18,10,0] 0
delta[18,10,1] 0
delta[18,11,0] 0
delta[18,11,1] 0
delta[18,12,0] 0
delta[18,12,1] 0
delta[18,13,0] 0
delta[18,13,1] 0
delta[18,14,0] 0
delta[18,14,1] 0
delta[18,15,0] 0
delta[18,15,1] 0
delta[18,16,0] 0
delta[18,16,1] 0
delta[18,17,0] 0
delta[18,17,1] 0
delta[18,19,0] 0
delta[18,19,1] 0
delta[18,20,0] 0
delta[18,20,1] 0
delta[18,21,0] 0
delta[18,21,1] 0
delta[19,0,0] 0
delta[19,0,1] 0
delta[19,1,0] 1
delta[19,1,1] 0
delta[19,2,0] 1
delta[19,2,1] 0
delta[19,3,0] 1
delta[19,3,1] 0
delta[19,4,0] 0
delta[19,4,1] 0
delta[19,5,0] 0
delta[19,5,1] 0
delta[19,6,0] 0
delta[19,6,1] 0
delta[19,7,0] 0
delta[19,7,1] 0
delta[19,8,0] 1
delta[19,8,1] 0
delta[19,9,0] 0
delta[19,9,1] 1
delta[19,10,0] 1
delta[19,10,1] 0
delta[19,11,0] 0
delta[19,11,1] 1
delta[19,12,0] 1
delta[19,12,1] 0
delta[19,13,0] 0
delta[19,13,1] 0
delta[19,14,0] 0
delta[19,14,1] 0
delta[19,15,0] 0
delta[19,15,1] 0
delta[19,16,0] 0
delta[19,16,1] 0
delta[19,17,0] 1
delta[19,17,1] 0
delta[19,18,0] 1
delta[19,18,1] 0
delta[19,20,0] 0
delta[19,20,1] 0
delta[19,21,0] 0
delta[19,21,1] 0
delta[20,0,0] 0
delta[20,0,1] 0
delta[20,1,0] 1
delta[20,1,1] 0
delta[20,2,0] 1
delta[20,2,1] 0
delta[20,3,0] 1
delta[20,3,1] 0
delta[20,4,0] 1
delta[20,4,1] 0
delta[20,5,0] 0
delta[20,5,1] 1
delta[20,6,0] 1
delta[20,6,1] 0
delta[20,7,0] 0
delta[20,7,1] 0
delta[20,8,0] 1
delta[20,8,1] 0
delta[20,9,0] 0
delta[20,9,1] 1
delta[20,10,0] 1
delta[20,10,1] 0
delta[20,11,0] 1
delta[20,11,1] 1
delta[20,12,0] 1
delta[20,12,1] 0
delta[20,13,0] 1
delta[20,13,1] 0
delta[20,14,0] 1
delta[20,14,1] 0
delta[20,15,0] 0
delta[20,15,1] 1
delta[20,16,0] 1
delta[20,16,1] 1
delta[20,17,0] 1
delta[20,17,1] 0
delta[20,18,0] 1
delta[20,18,1] 1
delta[20,19,0] 1
delta[20,19,1] 1
delta[20,21,0] 0
delta[20,21,1] 0
delta[21,0,0] 0
delta[21,0,1] 0
delta[21,1,0] 1
delta[21,1,1] 0
delta[21,2,0] 1
delta[21,2,1] 0
delta[21,3,0] 1
delta[21,3,1] 0
delta[21,4,0] 1
delta[21,4,1] 0
delta[21,5,0] 0
delta[21,5,1] 1
delta[21,6,0] 1
delta[21,6,1] 0
delta[21,7,0] 1
delta[21,7,1] 0
delta[21,8,0] 1
delta[21,8,1] 0
delta[21,9,0] 0
delta[21,9,1] 1
delta[21,10,0] 1
delta[21,10,1] 0
delta[21,11,0] 1
delta[21,11,1] 1
delta[21,12,0] 1
delta[21,12,1] 0
delta[21,13,0] 1
delta[21,13,1] 0
delta[21,14,0] 1
delta[21,14,1] 0
delta[21,15,0] 1
delta[21,15,1] 0
delta[21,16,0] 1
delta[21,16,1] 0
delta[21,17,0] 1
delta[21,17,1] 0
delta[21,18,0] 1
delta[21,18,1] 0
delta[21,19,0] 1
delta[21,19,1] 0
delta[21,20,0] 1
delta[21,20,1] 0
